weight: 718
vertices-order: 
1
6
12
14
15
16
25
18
13
5
17
19
27
45
53
74
46
54
64
68
75
78
81
82
87
88
92
94
99
102
106
107
113
108
109
115
119
128
129
127
131
126
125
124
116
120
117
122
111
103
104
96
97
95
90
91
110
101
105
114
123
130
118
121
100
112
98
93
89
77
55
47
48
49
50
51
56
62
66
70
63
67
71
76
80
84
85
86
83
72
73
79
65
69
57
58
59
60
61
52
28
29
30
31
32
33
34
35
36
37
38
39
40
41
42
43
44
24
23
22
21
20
26
7
8
9
10
11
4
2
3

